43864464215568261315013,2,1,2,02,4,1,2,015,10,1,2,010,6,1,2,01,5,1,2,010,14,1,2,01,7,1,2,01,8,1,2,010,7,1,2,06,15,1,2,09,5,1,2,02,11,1,2,015,14,1,2,01,4,1,2,09,10,1,2,015,13,1,2,012,9,1,2,012,13,1,2,013,6,1,2,06,11,1,2,010,4,1,2,015,8,1,2,03,7,1,2,09,14,1,2,04,1,1,2,08,6,1,2,01,15,1,2,07,1,1,2,010,7,1,2,015,2,1,2,04,15,1,2,05,2,1,2,012,6,1,2,03,4,1,2,014,1,1,2,05,9,1,2,08,1,1,2,09,11,1,2,013,10,1,2,012,9,1,2,06,2,1,2,09,7,1,2,02,6,1,2,014,6,1,2,08,14,1,2,09,11,1,2,03,10,1,2,010,13,1,2,011,6,1,2,05,3,1,2,0